0000000000000000
0000000000000000
0000111111110000
0000000000010000
0000000000010000
0000000000010000
0000111111111000
0000000000000000
0000000000000000
0000000000000000
0000000000000000
0000000000000000
0000000000000000
0000000000000000
0000000000000000
0000000000000000